p edge 40 89 15
v 1 5
v 1 29
v 2 12 21
v 3 13 16 26
v 3 6 11 25
v 3 7 15 36
v 5 2 8 18 30 38
v 3 17 35 37
v 2 22 27
v 3 19 28 32
v 4 14 24 34 39
v 3 4 31 40
v 2 20 33
v 2 3 9
v 3 1 10 23
e 1 4
e 1 14
e 1 24
e 2 13
e 2 16
e 2 26
e 2 36
e 3 4
e 3 14
e 3 39
e 4 6
e 4 9
e 4 15
e 4 16
e 4 32
e 4 39
e 5 12
e 5 14
e 5 21
e 5 27
e 6 8
e 6 14
e 6 27
e 6 28
e 6 39
e 6 40
e 7 10
e 7 11
e 8 13
e 8 17
e 8 22
e 8 24
e 8 29
e 8 31
e 8 34
e 8 35
e 9 32
e 10 12
e 10 22
e 11 19
e 11 27
e 11 36
e 12 17
e 12 22
e 12 32
e 12 40
e 13 26
e 13 28
e 13 39
e 14 18
e 14 28
e 14 32
e 14 33
e 14 39
e 15 16
e 15 20
e 15 36
e 16 21
e 16 24
e 16 29
e 16 40
e 17 25
e 18 22
e 18 26
e 19 38
e 19 40
e 20 33
e 22 29
e 22 36
e 23 30
e 24 25
e 24 28
e 25 27
e 25 33
e 25 34
e 25 35
e 26 27
e 26 34
e 27 31
e 27 33
e 29 30
e 30 33
e 31 40
e 32 40
e 33 39
e 33 40
e 34 35
e 34 39
e 35 36
